results/gr_files/K5.gr
p tw 41 66
3 4
26 27
35 36
12 13
21 22
22 23
31 32
8 9
40 41
20 38
21 37
17 18
27 28
2 24
25 26
17 33
13 14
36 37
32 33
19 39
18 19
13 29
4 5
15 35
5 6
16 34
14 15
23 24
12 30
18 40
9 10
5 21
1 2
10 11
19 20
8 26
28 29
9 25
14 36
37 38
6 7
15 16
24 25
11 31
10 32
17 41
33 34
13 37
20 21
6 28
7 27
29 30
1 41
38 39
3 23
39 40
4 22
34 35
2 3
11 12
5 29
7 8
9 33
30 31
1 25
16 17
