results/td_files/K5.td
decompose n = 50
decomposeConnected: n = 50
greedy decomposition (fill) obtained with 45 bags and width 4
10 safe separators found 
the decomposition packed into 11 bags, separatorWidth = 3, max bag size = 35
greedy decomposition (defect) obtained with 44 bags and width 4
10 safe separators found 
the decomposition packed into 11 bags, separatorWidth = 3, max bag size = 35
greedy decomposition (degree) obtained with 45 bags and width 4
4 safe separators found 
the decomposition packed into 5 bags, separatorWidth = 3, max bag size = 46
flattening
the decomposition flattened into 44 bags
s td 44 5 50
b 1 1 2 30
b 2 21 49 50
b 3 2 3 29 30
b 4 3 28 29 30
b 5 3 4 28 30
b 6 4 27 28 30
b 7 4 5 27 30
b 8 5 26 27 30
b 9 5 6 11 30 35
b 10 6 11 30 31 35
b 11 6 9 11 31 35
b 12 6 7 9 31 35
b 13 7 9 31 33 35
b 14 7 8 9 33
b 15 9 31 32 33
b 16 7 33 34 35
b 17 9 10 11 31
b 18 5 11 25 30 35
b 19 11 15 25 35 41
b 20 11 15 35 39 41
b 21 11 15 35 37 39
b 22 11 13 15 37 39
b 23 11 12 13 39
b 24 13 14 15 37
b 25 13 37 38 39
b 26 15 35 36 37
b 27 11 39 40 41
b 28 15 19 25 41 45
b 29 15 19 41 43 45
b 30 15 17 19 43 45
b 31 15 16 17 45
b 32 17 18 19 43
b 33 17 43 44 45
b 34 19 41 42 43
b 35 19 20 25 41 45
b 36 20 25 45 46
b 37 5 25 26 30
b 38 20 21 22 49
b 39 20 22 23 49
b 40 20 23 48 49
b 41 20 23 24 48
b 42 20 24 47 48
b 43 20 24 25 47
b 44 20 25 46 47
1 3
2 38
3 4
4 5
5 6
6 7
7 8
8 37
9 10
9 18
10 11
11 12
11 17
12 13
13 14
13 15
13 16
18 19
18 37
19 20
19 28
20 21
20 27
21 22
21 26
22 23
22 24
22 25
28 29
28 35
29 30
29 34
30 31
30 32
30 33
35 36
36 44
38 39
39 40
40 41
41 42
42 43
43 44
